
Gurobi 12.0.2 (win64) logging started Tue Jun 10 15:51:18 2025

Set parameter LogFile to value "C:\Ioana\_uni\honours\slp\algorithm\Main_files\results\removing_sulfation_w_cys_to_mer\Task_003_Sample002_irr_gurobi.log"
Gurobi Optimizer version 12.0.2 build v12.0.2rc0 (win64 - Windows 11.0 (26100.2))

CPU model: Intel(R) Core(TM) Ultra 5 125H, instruction set [SSE2|AVX|AVX2]
Thread count: 14 physical cores, 18 logical processors, using up to 18 threads

Non-default parameters:
TimeLimit  2200

Optimize a model with 47234 rows, 34515 columns and 146719 nonzeros
Model fingerprint: 0x4de0ca67
Variable types: 17267 continuous, 17248 integer (17248 binary)
Coefficient statistics:
  Matrix range     [1e-04, 8e+04]
  Objective range  [4e-04, 9e-01]
  Bounds range     [1e+00, 1e+03]
  RHS range        [1e+00, 1e+00]
Presolve removed 30821 rows and 21542 columns
Presolve time: 0.33s
Presolved: 16413 rows, 12973 columns, 54713 nonzeros
Variable types: 6425 continuous, 6548 integer (6548 binary)
Found heuristic solution: objective 14.6552171

Root relaxation: objective 1.822046e+00, 2570 iterations, 0.26 seconds (0.53 work units)

    Nodes    |    Current Node    |     Objective Bounds      |     Work
 Expl Unexpl |  Obj  Depth IntInf | Incumbent    BestBd   Gap | It/Node Time

     0     0    1.82205    0    2   14.65522    1.82205  87.6%     -    0s
H    0     0                       2.7028570    1.82205  32.6%     -    0s
H    0     0                       2.0283190    1.82205  10.2%     -    0s

Cutting planes:
  Learned: 1

Explored 1 nodes (2570 simplex iterations) in 0.79 seconds (1.07 work units)
Thread count was 18 (of 18 available processors)

Solution count 3: 2.02832 2.70286 14.6552 

Optimal solution found (tolerance 1.00e-04)
Best objective 2.028319025171e+00, best bound 2.028319025171e+00, gap 0.0000%
